NAME : Unnamed.851.tour
COMMENT : Length = 851
COMMENT : Found by LKH [Keld Helsgaun] Mon Jan 12 15:16:49 2015
TYPE : TOUR
DIMENSION : 110
TOUR_SECTION
1
8
47
46
27
61
66
28
76
15
71
36
23
3
29
33
2
39
52
9
53
78
5
69
59
19
79
80
73
32
65
42
60
54
68
110
21
35
12
41
55
17
25
40
62
92
94
100
102
101
109
103
97
105
83
85
20
75
108
99
95
106
84
104
91
93
67
72
14
96
90
87
86
89
88
107
98
48
37
4
51
58
45
70
16
10
77
49
50
43
34
18
11
26
63
82
24
56
7
38
13
57
6
81
30
64
31
44
74
22
-1
EOF
